858921.0
1367
0 1 2 3 4 5 6 9 10 11 12 13 16 17 18 20 21 23 25 26 27 28 29 31 32 33 34 36 37 38 39 41 43 45 46 47 48 51 52 55 57 58 59 60 61 62 63 64 65 67 69 70 72 73 74 75 76 77 78 79 80 81 86 87 88 90 91 92 93 95 96 97 98 99 